n_res = 4;
rcap = [4, 8, 63, 63];
rtype = [1, 1, 2, 2];
n_tasks = 12;
modes = [ {1, 2, 3}, {4, 5, 6}, {7, 8, 9}, {10, 11, 12}, {13, 14, 15}, {16, 17, 18}, {19, 20, 21}, {22, 23, 24}, {25, 26, 27}, {28, 29, 30}, {31, 32, 33}, {34, 35, 36} ];
succ = [ {6, 7, 8}, {7, 11, 12}, {4, 5, 10}, {8, 9, 12}, {8, 9}, {9, 10, 12}, {10}, {11}, {11}, {}, {}, {} ];
n_opt = 36;
dur = [3, 7, 8, 2, 3, 10, 4, 8, 9, 1, 5, 7, 5, 6, 10, 2, 3, 5, 3, 8, 8, 4, 5, 8, 4, 5, 9, 6, 6, 7, 1, 2, 9, 3, 4, 8];
rreq = [|  0,  0,  0,  3,  0,  3, 10,  8,  0,  0,  0,  0,  7,  0,  0,  4,  4,  0,  0,  0,  3,  0,  0,  3,  5,  0,  4,  7,  0,  0,  5,  0,  0,  6,  0,  4
        |  5,  4,  4,  0,  8,  0,  0,  0,  8,  5,  5,  2,  0,  6,  5,  0,  0,  2,  9,  9,  0,  7,  2,  0,  0,  9,  0,  0,  6,  5,  0,  4,  4,  0,  9,  0
        |  6,  3,  0,  0,  0,  9,  2,  0,  0,  3,  0,  3,  5,  0,  3,  1,  0,  0,  0,  5,  0,  8,  7,  6, 10,  8,  3,  0,  6,  0,  0,  0,  0,  0,  8,  7
        |  0,  0,  8,  3,  3,  0,  0, 10, 10,  0,  6,  0,  0,  7,  0,  0,  6,  6,  7,  0,  6,  0,  0,  0,  0,  0,  0,  4,  0,  3,  9,  7,  5,  3,  0,  0 |];
